NAME: ACTUAL_TOURS/amz0839
TYPE: TOUR
COMMENT: RouteID_5a06e41f-db09-48c7-ab32-b08cc6211434
DIMENSION: 169
TOUR_SECTION
114
21
130
111
94
145
23
109
68
76
55
146
167
59
8
155
3
112
58
49
41
98
163
84
125
168
144
53
26
149
115
12
83
92
57
71
161
132
75
48
89
136
105
148
139
51
18
141
73
120
96
160
117
107
126
36
14
147
64
37
102
77
11
127
169
20
104
157
100
24
119
60
50
88
70
33
97
153
165
86
106
30
52
166
134
46
95
39
124
129
133
154
10
162
47
31
4
28
87
66
81
38
151
93
142
128
32
17
40
150
56
110
54
9
65
123
2
113
138
44
25
78
35
29
122
101
22
140
1
62
34
19
16
108
5
159
15
63
67
80
74
103
13
82
72
156
164
42
143
121
43
99
85
90
118
116
91
6
61
79
69
45
7
158
152
131
135
27
137
-1
EOF
